/*********************************************
    * Lab01 - simple
    * Author: Coso
    * Creation Date: Mar, 2019
    *********************************************/
instance_name = "small_instance_22_simple";

d = 2;
r = 3;

SCj = [195 190];
Dk = [80 41 94];

Cjk = [[60 63 60]
 [44 68 46]];
